NAME : n60w60.002.566.tour
COMMENT : Length = 566
COMMENT : Found by LKH [Keld Helsgaun] Tue May  2 05:18:27 2017
TYPE : TOUR
DIMENSION : 61
TOUR_SECTION
1
49
10
14
45
57
20
42
33
6
60
53
2
21
48
56
25
27
9
55
46
15
50
4
37
24
19
59
41
52
35
16
26
43
13
38
17
12
23
51
8
34
58
11
3
54
32
47
39
31
5
18
40
7
44
22
36
61
28
30
29
-1
EOF
